65
200
138	1
137	1
136	1
134	1
133	2
132	2
131	4
130	1
128	1
126	1
125	2
123	2
122	2
117	1
115	1
114	2
112	1
111	3
110	1
108	1
107	1
105	1
103	3
101	2
100	1
99	2
98	2
95	2
94	1
93	1
92	1
90	2
88	1
86	3
84	2
83	1
82	1
81	3
79	1
77	1
75	1
74	1
73	2
70	1
69	2
68	1
66	1
65	4
64	2
63	1
62	1
61	2
56	2
55	1
53	1
52	3
51	1
50	1
48	1
47	1
46	2
45	1
44	2
42	1
41	1
